(set-logic QF_NRA)
(set-info :source |Benchmarks generated from hycomp (https://es-static.fbk.eu/tools/hycomp/). BMC instances of non-linear hybrid automata taken from: Alessandro Cimatti, Sergio Mover, Stefano Tonetta, A quantifier-free SMT encoding of non-linear hybrid automata, FMCAD 2012 and Alessandro Cimatti, Sergio Mover, Stefano Tonetta, Quantier-free encoding of invariants for Hybrid Systems, Formal Methods in System Design. This instance solves a BMC problem of depth 3 and uses the quantifier free encoding encoding. Contacts: Sergio Mover (mover@fbk.eu), Stefano Tonetta (tonettas@fbk.eu), Alessandro Cimatti (cimatti@fbk.eu).|)
(set-info :smt-lib-version 2.0)
(set-info :category "industrial")
(set-info :status unsat)
;; MathSAT API call trace
;; generated on Mon Mar 19 10:37:28 2012
(declare-fun b.counter.3__AT1 () Bool)
(declare-fun b.EVENT.1__AT0 () Bool)
(declare-fun b.x__AT0 () Real)
(declare-fun b.time__AT3 () Real)
(declare-fun b.event_is_timed__AT2 () Bool)
(declare-fun b.speed_x__AT1 () Real)
(declare-fun b.delta__AT3 () Real)
(declare-fun b.time__AT1 () Real)
(declare-fun g__AT0 () Real)
(declare-fun b.y__AT0 () Real)
(declare-fun b.EVENT.0__AT1 () Bool)
(declare-fun b.speed_y__AT1 () Real)
(declare-fun b.EVENT.0__AT3 () Bool)
(declare-fun b.delta__AT1 () Real)
(declare-fun b.counter.0__AT0 () Bool)
(declare-fun b.EVENT.1__AT1 () Bool)
(declare-fun b.EVENT.1__AT3 () Bool)
(declare-fun b.counter.1__AT0 () Bool)
(declare-fun b.delta__AT0 () Real)
(declare-fun b.time__AT2 () Real)
(declare-fun b.y__AT2 () Real)
(declare-fun b.EVENT.0__AT0 () Bool)
(declare-fun b.delta__AT2 () Real)
(declare-fun b.counter.0__AT2 () Bool)
(declare-fun b.x__AT2 () Real)
(declare-fun b.EVENT.0__AT2 () Bool)
(declare-fun b.x__AT1 () Real)
(declare-fun b.counter.1__AT2 () Bool)
(declare-fun b.EVENT.1__AT2 () Bool)
(declare-fun b.counter.2__AT2 () Bool)
(declare-fun b.counter.3__AT2 () Bool)
(declare-fun b.speed_y__AT0 () Real)
(declare-fun b.speed_x__AT2 () Real)
(declare-fun b.y__AT3 () Real)
(declare-fun b.speed_y__AT2 () Real)
(declare-fun b.counter.0__AT3 () Bool)
(declare-fun b.x__AT3 () Real)
(declare-fun b.counter.3__AT0 () Bool)
(declare-fun b.counter.1__AT3 () Bool)
(declare-fun b.event_is_timed__AT0 () Bool)
(declare-fun speed_loss__AT0 () Real)
(declare-fun b.speed_x__AT3 () Real)
(declare-fun b.counter.2__AT3 () Bool)
(declare-fun b.y__AT1 () Real)
(declare-fun b.speed_y__AT3 () Real)
(declare-fun b.event_is_timed__AT1 () Bool)
(declare-fun b.counter.3__AT3 () Bool)
(declare-fun b.counter.0__AT1 () Bool)
(declare-fun b.event_is_timed__AT3 () Bool)
(declare-fun b.speed_x__AT0 () Real)
(declare-fun b.counter.1__AT1 () Bool)
(declare-fun b.time__AT0 () Real)
(declare-fun b.counter.2__AT0 () Bool)
(declare-fun b.counter.2__AT1 () Bool)
(assert (let ((.def_76 (* (- 1.0) g__AT0)))
(let ((.def_77 (* (/ 1 2) .def_76)))
(let ((.def_85 (* 2.0 .def_77)))
(let ((.def_91 (* (- 1.0) .def_85)))
(let ((.def_634 (* .def_91 b.delta__AT3)))
(let ((.def_635 (<= b.speed_y__AT3 .def_634)))
(let ((.def_633 (<= b.speed_y__AT3 0.0 )))
(let ((.def_636 (and .def_633 .def_635)))
(let ((.def_629 (* .def_85 b.delta__AT3)))
(let ((.def_630 (+ b.speed_y__AT3 .def_629)))
(let ((.def_631 (<= 0.0 .def_630)))
(let ((.def_628 (<= 0.0 b.speed_y__AT3)))
(let ((.def_632 (and .def_628 .def_631)))
(let ((.def_637 (or .def_632 .def_636)))
(let ((.def_623 (* b.speed_y__AT3 b.delta__AT3)))
(let ((.def_621 (* b.delta__AT3 b.delta__AT3)))
(let ((.def_622 (* .def_77 .def_621)))
(let ((.def_624 (+ .def_622 .def_623)))
(let ((.def_625 (+ b.y__AT3 .def_624)))
(let ((.def_626 (<= 0.0 .def_625)))
(let ((.def_609 (<= 0.0 b.y__AT3)))
(let ((.def_627 (and .def_609 .def_626)))
(let ((.def_638 (and .def_627 .def_637)))
(let ((.def_57 (<= g__AT0 10.0 )))
(let ((.def_56 (<= 8.0 g__AT0)))
(let ((.def_58 (and .def_56 .def_57)))
(let ((.def_639 (and .def_58 .def_638)))
(let ((.def_65 (<= speed_loss__AT0 (/ 1 2))))
(let ((.def_62 (<= (/ 1 10) speed_loss__AT0)))
(let ((.def_66 (and .def_62 .def_65)))
(let ((.def_640 (and .def_66 .def_639)))
(let ((.def_334 (not b.counter.0__AT2)))
(let ((.def_322 (not b.counter.1__AT2)))
(let ((.def_613 (and .def_322 .def_334)))
(let ((.def_616 (or b.counter.3__AT2 .def_613)))
(let ((.def_329 (not b.counter.2__AT2)))
(let ((.def_614 (and .def_329 .def_613)))
(let ((.def_344 (not b.counter.3__AT2)))
(let ((.def_615 (or .def_344 .def_614)))
(let ((.def_617 (and .def_615 .def_616)))
(let ((.def_67 (and .def_58 .def_66)))
(let ((.def_610 (and .def_67 .def_609)))
(let ((.def_606 (not b.EVENT.0__AT3)))
(let ((.def_604 (not b.EVENT.1__AT3)))
(let ((.def_607 (or .def_604 .def_606)))
(let ((.def_6 (not b.counter.0__AT3)))
(let ((.def_4 (not b.counter.1__AT3)))
(let ((.def_597 (or .def_4 .def_6)))
(let ((.def_601 (or b.counter.3__AT3 .def_597)))
(let ((.def_598 (or b.counter.2__AT3 .def_597)))
(let ((.def_9 (not b.counter.2__AT3)))
(let ((.def_596 (or .def_6 .def_9)))
(let ((.def_599 (and .def_596 .def_598)))
(let ((.def_12 (not b.counter.3__AT3)))
(let ((.def_600 (or .def_12 .def_599)))
(let ((.def_602 (and .def_600 .def_601)))
(let ((.def_608 (and .def_602 .def_607)))
(let ((.def_611 (and .def_608 .def_610)))
(let ((.def_591 (<= 0.0 b.delta__AT2)))
(let ((.def_432 (not b.EVENT.0__AT2)))
(let ((.def_430 (not b.EVENT.1__AT2)))
(let ((.def_494 (and .def_430 .def_432)))
(let ((.def_495 (not .def_494)))
(let ((.def_592 (or .def_495 .def_591)))
(let ((.def_593 (or b.EVENT.1__AT2 .def_592)))
(let ((.def_540 (= b.counter.0__AT3 b.counter.0__AT2)))
(let ((.def_538 (= b.counter.1__AT3 b.counter.1__AT2)))
(let ((.def_536 (= b.counter.2__AT3 b.counter.2__AT2)))
(let ((.def_535 (= b.counter.3__AT3 b.counter.3__AT2)))
(let ((.def_537 (and .def_535 .def_536)))
(let ((.def_539 (and .def_537 .def_538)))
(let ((.def_541 (and .def_539 .def_540)))
(let ((.def_588 (or .def_495 .def_541)))
(let ((.def_589 (or b.EVENT.1__AT2 .def_588)))
(let ((.def_548 (= b.x__AT2 b.x__AT3)))
(let ((.def_545 (= b.y__AT2 b.y__AT3)))
(let ((.def_582 (and .def_545 .def_548)))
(let ((.def_475 (= b.speed_x__AT2 b.speed_x__AT3)))
(let ((.def_583 (and .def_475 .def_582)))
(let ((.def_534 (= b.speed_y__AT2 b.speed_y__AT3)))
(let ((.def_584 (and .def_534 .def_583)))
(let ((.def_579 (= b.delta__AT2 0.0 )))
(let ((.def_580 (and .def_494 .def_579)))
(let ((.def_581 (not .def_580)))
(let ((.def_585 (or .def_581 .def_584)))
(let ((.def_586 (or b.EVENT.1__AT2 .def_585)))
(let ((.def_559 (= b.time__AT2 b.time__AT3)))
(let ((.def_571 (and .def_548 .def_559)))
(let ((.def_572 (and .def_545 .def_571)))
(let ((.def_573 (and .def_475 .def_572)))
(let ((.def_574 (and .def_534 .def_573)))
(let ((.def_575 (and .def_541 .def_574)))
(let ((.def_576 (or .def_430 .def_575)))
(let ((.def_562 (* (- 1.0) b.time__AT3)))
(let ((.def_565 (+ b.delta__AT2 .def_562)))
(let ((.def_566 (+ b.time__AT2 .def_565)))
(let ((.def_567 (= .def_566 0.0 )))
(let ((.def_568 (or .def_495 .def_567)))
(let ((.def_569 (or b.EVENT.1__AT2 .def_568)))
(let ((.def_560 (or .def_494 .def_559)))
(let ((.def_561 (or b.EVENT.1__AT2 .def_560)))
(let ((.def_570 (and .def_561 .def_569)))
(let ((.def_577 (and .def_570 .def_576)))
(let ((.def_555 (= .def_495 b.event_is_timed__AT3)))
(let ((.def_553 (= b.event_is_timed__AT2 .def_494)))
(let ((.def_556 (and .def_553 .def_555)))
(let ((.def_542 (and .def_534 .def_541)))
(let ((.def_454 (<= 0.0 b.speed_y__AT2)))
(let ((.def_498 (not .def_454)))
(let ((.def_497 (= b.y__AT2 0.0 )))
(let ((.def_499 (and .def_497 .def_498)))
(let ((.def_543 (or .def_499 .def_542)))
(let ((.def_511 (or .def_6 b.counter.0__AT2)))
(let ((.def_510 (or b.counter.0__AT3 .def_334)))
(let ((.def_512 (and .def_510 .def_511)))
(let ((.def_513 (and .def_4 .def_512)))
(let ((.def_514 (or b.counter.1__AT2 .def_513)))
(let ((.def_509 (or b.counter.1__AT3 .def_322)))
(let ((.def_515 (and .def_509 .def_514)))
(let ((.def_526 (and .def_9 .def_515)))
(let ((.def_527 (or b.counter.2__AT2 .def_526)))
(let ((.def_521 (and .def_4 .def_334)))
(let ((.def_522 (or b.counter.1__AT2 .def_521)))
(let ((.def_523 (and .def_509 .def_522)))
(let ((.def_524 (and b.counter.2__AT3 .def_523)))
(let ((.def_525 (or .def_329 .def_524)))
(let ((.def_528 (and .def_525 .def_527)))
(let ((.def_529 (and b.counter.3__AT3 .def_528)))
(let ((.def_530 (or b.counter.3__AT2 .def_529)))
(let ((.def_516 (and b.counter.2__AT3 .def_515)))
(let ((.def_517 (or b.counter.2__AT2 .def_516)))
(let ((.def_505 (or b.counter.1__AT3 b.counter.1__AT2)))
(let ((.def_503 (and .def_4 b.counter.0__AT3)))
(let ((.def_504 (or .def_322 .def_503)))
(let ((.def_506 (and .def_504 .def_505)))
(let ((.def_507 (and .def_9 .def_506)))
(let ((.def_508 (or .def_329 .def_507)))
(let ((.def_518 (and .def_508 .def_517)))
(let ((.def_519 (and .def_12 .def_518)))
(let ((.def_520 (or .def_344 .def_519)))
(let ((.def_531 (and .def_520 .def_530)))
(let ((.def_297 (* (- 1.0) b.speed_y__AT2)))
(let ((.def_136 (* (- 1.0) speed_loss__AT0)))
(let ((.def_137 (+ 1.0 .def_136)))
(let ((.def_501 (* .def_137 .def_297)))
(let ((.def_502 (= b.speed_y__AT3 .def_501)))
(let ((.def_532 (and .def_502 .def_531)))
(let ((.def_500 (not .def_499)))
(let ((.def_533 (or .def_500 .def_532)))
(let ((.def_544 (and .def_533 .def_543)))
(let ((.def_546 (and .def_544 .def_545)))
(let ((.def_547 (and .def_475 .def_546)))
(let ((.def_549 (and .def_547 .def_548)))
(let ((.def_550 (or .def_494 .def_549)))
(let ((.def_551 (or b.EVENT.1__AT2 .def_550)))
(let ((.def_485 (* (- 1.0) b.y__AT3)))
(let ((.def_449 (* b.speed_y__AT2 b.delta__AT2)))
(let ((.def_489 (+ .def_449 .def_485)))
(let ((.def_447 (* b.delta__AT2 b.delta__AT2)))
(let ((.def_448 (* .def_77 .def_447)))
(let ((.def_490 (+ .def_448 .def_489)))
(let ((.def_491 (+ b.y__AT2 .def_490)))
(let ((.def_492 (= .def_491 0.0 )))
(let ((.def_479 (* (- 1.0) b.speed_y__AT3)))
(let ((.def_477 (* .def_76 b.delta__AT2)))
(let ((.def_480 (+ .def_477 .def_479)))
(let ((.def_481 (+ b.speed_y__AT2 .def_480)))
(let ((.def_482 (= .def_481 0.0 )))
(let ((.def_470 (* (- 1.0) b.x__AT3)))
(let ((.def_468 (* b.speed_x__AT2 b.delta__AT2)))
(let ((.def_471 (+ .def_468 .def_470)))
(let ((.def_472 (+ b.x__AT2 .def_471)))
(let ((.def_473 (= .def_472 0.0 )))
(let ((.def_476 (and .def_473 .def_475)))
(let ((.def_483 (and .def_476 .def_482)))
(let ((.def_493 (and .def_483 .def_492)))
(let ((.def_496 (or .def_493 .def_495)))
(let ((.def_552 (and .def_496 .def_551)))
(let ((.def_557 (and .def_552 .def_556)))
(let ((.def_578 (and .def_557 .def_577)))
(let ((.def_587 (and .def_578 .def_586)))
(let ((.def_590 (and .def_587 .def_589)))
(let ((.def_594 (and .def_590 .def_593)))
(let ((.def_595 (and .def_430 .def_594)))
(let ((.def_612 (and .def_595 .def_611)))
(let ((.def_618 (and .def_612 .def_617)))
(let ((.def_460 (* .def_91 b.delta__AT2)))
(let ((.def_461 (<= b.speed_y__AT2 .def_460)))
(let ((.def_459 (<= b.speed_y__AT2 0.0 )))
(let ((.def_462 (and .def_459 .def_461)))
(let ((.def_455 (* .def_85 b.delta__AT2)))
(let ((.def_456 (+ b.speed_y__AT2 .def_455)))
(let ((.def_457 (<= 0.0 .def_456)))
(let ((.def_458 (and .def_454 .def_457)))
(let ((.def_463 (or .def_458 .def_462)))
(let ((.def_450 (+ .def_448 .def_449)))
(let ((.def_451 (+ b.y__AT2 .def_450)))
(let ((.def_452 (<= 0.0 .def_451)))
(let ((.def_435 (<= 0.0 b.y__AT2)))
(let ((.def_453 (and .def_435 .def_452)))
(let ((.def_464 (and .def_453 .def_463)))
(let ((.def_465 (and .def_58 .def_464)))
(let ((.def_466 (and .def_66 .def_465)))
(let ((.def_154 (not b.counter.0__AT1)))
(let ((.def_142 (not b.counter.1__AT1)))
(let ((.def_439 (and .def_142 .def_154)))
(let ((.def_442 (or b.counter.3__AT1 .def_439)))
(let ((.def_149 (not b.counter.2__AT1)))
(let ((.def_440 (and .def_149 .def_439)))
(let ((.def_164 (not b.counter.3__AT1)))
(let ((.def_441 (or .def_164 .def_440)))
(let ((.def_443 (and .def_441 .def_442)))
(let ((.def_436 (and .def_67 .def_435)))
(let ((.def_433 (or .def_430 .def_432)))
(let ((.def_423 (or .def_322 .def_334)))
(let ((.def_427 (or b.counter.3__AT2 .def_423)))
(let ((.def_424 (or b.counter.2__AT2 .def_423)))
(let ((.def_422 (or .def_329 .def_334)))
(let ((.def_425 (and .def_422 .def_424)))
(let ((.def_426 (or .def_344 .def_425)))
(let ((.def_428 (and .def_426 .def_427)))
(let ((.def_434 (and .def_428 .def_433)))
(let ((.def_437 (and .def_434 .def_436)))
(let ((.def_417 (<= 0.0 b.delta__AT1)))
(let ((.def_252 (not b.EVENT.0__AT1)))
(let ((.def_250 (not b.EVENT.1__AT1)))
(let ((.def_312 (and .def_250 .def_252)))
(let ((.def_313 (not .def_312)))
(let ((.def_418 (or .def_313 .def_417)))
(let ((.def_419 (or b.EVENT.1__AT1 .def_418)))
(let ((.def_366 (= b.counter.0__AT1 b.counter.0__AT2)))
(let ((.def_364 (= b.counter.1__AT1 b.counter.1__AT2)))
(let ((.def_362 (= b.counter.2__AT1 b.counter.2__AT2)))
(let ((.def_361 (= b.counter.3__AT1 b.counter.3__AT2)))
(let ((.def_363 (and .def_361 .def_362)))
(let ((.def_365 (and .def_363 .def_364)))
(let ((.def_367 (and .def_365 .def_366)))
(let ((.def_414 (or .def_313 .def_367)))
(let ((.def_415 (or b.EVENT.1__AT1 .def_414)))
(let ((.def_374 (= b.x__AT1 b.x__AT2)))
(let ((.def_371 (= b.y__AT1 b.y__AT2)))
(let ((.def_408 (and .def_371 .def_374)))
(let ((.def_293 (= b.speed_x__AT1 b.speed_x__AT2)))
(let ((.def_409 (and .def_293 .def_408)))
(let ((.def_360 (= b.speed_y__AT1 b.speed_y__AT2)))
(let ((.def_410 (and .def_360 .def_409)))
(let ((.def_405 (= b.delta__AT1 0.0 )))
(let ((.def_406 (and .def_312 .def_405)))
(let ((.def_407 (not .def_406)))
(let ((.def_411 (or .def_407 .def_410)))
(let ((.def_412 (or b.EVENT.1__AT1 .def_411)))
(let ((.def_385 (= b.time__AT1 b.time__AT2)))
(let ((.def_397 (and .def_374 .def_385)))
(let ((.def_398 (and .def_371 .def_397)))
(let ((.def_399 (and .def_293 .def_398)))
(let ((.def_400 (and .def_360 .def_399)))
(let ((.def_401 (and .def_367 .def_400)))
(let ((.def_402 (or .def_250 .def_401)))
(let ((.def_388 (* (- 1.0) b.time__AT2)))
(let ((.def_391 (+ b.delta__AT1 .def_388)))
(let ((.def_392 (+ b.time__AT1 .def_391)))
(let ((.def_393 (= .def_392 0.0 )))
(let ((.def_394 (or .def_313 .def_393)))
(let ((.def_395 (or b.EVENT.1__AT1 .def_394)))
(let ((.def_386 (or .def_312 .def_385)))
(let ((.def_387 (or b.EVENT.1__AT1 .def_386)))
(let ((.def_396 (and .def_387 .def_395)))
(let ((.def_403 (and .def_396 .def_402)))
(let ((.def_381 (= .def_313 b.event_is_timed__AT2)))
(let ((.def_379 (= b.event_is_timed__AT1 .def_312)))
(let ((.def_382 (and .def_379 .def_381)))
(let ((.def_368 (and .def_360 .def_367)))
(let ((.def_272 (<= 0.0 b.speed_y__AT1)))
(let ((.def_316 (not .def_272)))
(let ((.def_315 (= b.y__AT1 0.0 )))
(let ((.def_317 (and .def_315 .def_316)))
(let ((.def_369 (or .def_317 .def_368)))
(let ((.def_335 (or b.counter.0__AT1 .def_334)))
(let ((.def_333 (or .def_154 b.counter.0__AT2)))
(let ((.def_336 (and .def_333 .def_335)))
(let ((.def_337 (and .def_322 .def_336)))
(let ((.def_338 (or b.counter.1__AT1 .def_337)))
(let ((.def_332 (or .def_142 b.counter.1__AT2)))
(let ((.def_339 (and .def_332 .def_338)))
(let ((.def_352 (and .def_329 .def_339)))
(let ((.def_353 (or b.counter.2__AT1 .def_352)))
(let ((.def_347 (and .def_154 .def_322)))
(let ((.def_348 (or b.counter.1__AT1 .def_347)))
(let ((.def_349 (and .def_332 .def_348)))
(let ((.def_350 (and b.counter.2__AT2 .def_349)))
(let ((.def_351 (or .def_149 .def_350)))
(let ((.def_354 (and .def_351 .def_353)))
(let ((.def_355 (and b.counter.3__AT2 .def_354)))
(let ((.def_356 (or b.counter.3__AT1 .def_355)))
(let ((.def_340 (and b.counter.2__AT2 .def_339)))
(let ((.def_341 (or b.counter.2__AT1 .def_340)))
(let ((.def_326 (or b.counter.1__AT1 b.counter.1__AT2)))
(let ((.def_324 (and .def_322 b.counter.0__AT2)))
(let ((.def_325 (or .def_142 .def_324)))
(let ((.def_327 (and .def_325 .def_326)))
(let ((.def_330 (and .def_327 .def_329)))
(let ((.def_331 (or .def_149 .def_330)))
(let ((.def_342 (and .def_331 .def_341)))
(let ((.def_345 (and .def_342 .def_344)))
(let ((.def_346 (or .def_164 .def_345)))
(let ((.def_357 (and .def_346 .def_356)))
(let ((.def_115 (* (- 1.0) b.speed_y__AT1)))
(let ((.def_319 (* .def_115 .def_137)))
(let ((.def_320 (= b.speed_y__AT2 .def_319)))
(let ((.def_358 (and .def_320 .def_357)))
(let ((.def_318 (not .def_317)))
(let ((.def_359 (or .def_318 .def_358)))
(let ((.def_370 (and .def_359 .def_369)))
(let ((.def_372 (and .def_370 .def_371)))
(let ((.def_373 (and .def_293 .def_372)))
(let ((.def_375 (and .def_373 .def_374)))
(let ((.def_376 (or .def_312 .def_375)))
(let ((.def_377 (or b.EVENT.1__AT1 .def_376)))
(let ((.def_303 (* (- 1.0) b.y__AT2)))
(let ((.def_267 (* b.speed_y__AT1 b.delta__AT1)))
(let ((.def_307 (+ .def_267 .def_303)))
(let ((.def_265 (* b.delta__AT1 b.delta__AT1)))
(let ((.def_266 (* .def_77 .def_265)))
(let ((.def_308 (+ .def_266 .def_307)))
(let ((.def_309 (+ b.y__AT1 .def_308)))
(let ((.def_310 (= .def_309 0.0 )))
(let ((.def_295 (* .def_76 b.delta__AT1)))
(let ((.def_298 (+ .def_295 .def_297)))
(let ((.def_299 (+ b.speed_y__AT1 .def_298)))
(let ((.def_300 (= .def_299 0.0 )))
(let ((.def_288 (* (- 1.0) b.x__AT2)))
(let ((.def_286 (* b.speed_x__AT1 b.delta__AT1)))
(let ((.def_289 (+ .def_286 .def_288)))
(let ((.def_290 (+ b.x__AT1 .def_289)))
(let ((.def_291 (= .def_290 0.0 )))
(let ((.def_294 (and .def_291 .def_293)))
(let ((.def_301 (and .def_294 .def_300)))
(let ((.def_311 (and .def_301 .def_310)))
(let ((.def_314 (or .def_311 .def_313)))
(let ((.def_378 (and .def_314 .def_377)))
(let ((.def_383 (and .def_378 .def_382)))
(let ((.def_404 (and .def_383 .def_403)))
(let ((.def_413 (and .def_404 .def_412)))
(let ((.def_416 (and .def_413 .def_415)))
(let ((.def_420 (and .def_416 .def_419)))
(let ((.def_421 (and .def_250 .def_420)))
(let ((.def_438 (and .def_421 .def_437)))
(let ((.def_444 (and .def_438 .def_443)))
(let ((.def_278 (* .def_91 b.delta__AT1)))
(let ((.def_279 (<= b.speed_y__AT1 .def_278)))
(let ((.def_277 (<= b.speed_y__AT1 0.0 )))
(let ((.def_280 (and .def_277 .def_279)))
(let ((.def_273 (* .def_85 b.delta__AT1)))
(let ((.def_274 (+ b.speed_y__AT1 .def_273)))
(let ((.def_275 (<= 0.0 .def_274)))
(let ((.def_276 (and .def_272 .def_275)))
(let ((.def_281 (or .def_276 .def_280)))
(let ((.def_268 (+ .def_266 .def_267)))
(let ((.def_269 (+ b.y__AT1 .def_268)))
(let ((.def_270 (<= 0.0 .def_269)))
(let ((.def_255 (<= 0.0 b.y__AT1)))
(let ((.def_271 (and .def_255 .def_270)))
(let ((.def_282 (and .def_271 .def_281)))
(let ((.def_283 (and .def_58 .def_282)))
(let ((.def_284 (and .def_66 .def_283)))
(let ((.def_32 (not b.counter.0__AT0)))
(let ((.def_30 (not b.counter.1__AT0)))
(let ((.def_33 (and .def_30 .def_32)))
(let ((.def_260 (or .def_33 b.counter.3__AT0)))
(let ((.def_38 (not b.counter.3__AT0)))
(let ((.def_35 (not b.counter.2__AT0)))
(let ((.def_36 (and .def_33 .def_35)))
(let ((.def_259 (or .def_36 .def_38)))
(let ((.def_261 (and .def_259 .def_260)))
(let ((.def_256 (and .def_67 .def_255)))
(let ((.def_253 (or .def_250 .def_252)))
(let ((.def_243 (or .def_142 .def_154)))
(let ((.def_247 (or b.counter.3__AT1 .def_243)))
(let ((.def_244 (or b.counter.2__AT1 .def_243)))
(let ((.def_242 (or .def_149 .def_154)))
(let ((.def_245 (and .def_242 .def_244)))
(let ((.def_246 (or .def_164 .def_245)))
(let ((.def_248 (and .def_246 .def_247)))
(let ((.def_254 (and .def_248 .def_253)))
(let ((.def_257 (and .def_254 .def_256)))
(let ((.def_237 (<= 0.0 b.delta__AT0)))
(let ((.def_51 (not b.EVENT.0__AT0)))
(let ((.def_49 (not b.EVENT.1__AT0)))
(let ((.def_129 (and .def_49 .def_51)))
(let ((.def_130 (not .def_129)))
(let ((.def_238 (or .def_130 .def_237)))
(let ((.def_239 (or b.EVENT.1__AT0 .def_238)))
(let ((.def_186 (= b.counter.0__AT0 b.counter.0__AT1)))
(let ((.def_184 (= b.counter.1__AT0 b.counter.1__AT1)))
(let ((.def_182 (= b.counter.2__AT0 b.counter.2__AT1)))
(let ((.def_181 (= b.counter.3__AT0 b.counter.3__AT1)))
(let ((.def_183 (and .def_181 .def_182)))
(let ((.def_185 (and .def_183 .def_184)))
(let ((.def_187 (and .def_185 .def_186)))
(let ((.def_234 (or .def_130 .def_187)))
(let ((.def_235 (or b.EVENT.1__AT0 .def_234)))
(let ((.def_194 (= b.x__AT1 b.x__AT0)))
(let ((.def_191 (= b.y__AT0 b.y__AT1)))
(let ((.def_228 (and .def_191 .def_194)))
(let ((.def_111 (= b.speed_x__AT0 b.speed_x__AT1)))
(let ((.def_229 (and .def_111 .def_228)))
(let ((.def_180 (= b.speed_y__AT0 b.speed_y__AT1)))
(let ((.def_230 (and .def_180 .def_229)))
(let ((.def_225 (= b.delta__AT0 0.0 )))
(let ((.def_226 (and .def_129 .def_225)))
(let ((.def_227 (not .def_226)))
(let ((.def_231 (or .def_227 .def_230)))
(let ((.def_232 (or b.EVENT.1__AT0 .def_231)))
(let ((.def_205 (= b.time__AT0 b.time__AT1)))
(let ((.def_217 (and .def_194 .def_205)))
(let ((.def_218 (and .def_191 .def_217)))
(let ((.def_219 (and .def_111 .def_218)))
(let ((.def_220 (and .def_180 .def_219)))
(let ((.def_221 (and .def_187 .def_220)))
(let ((.def_222 (or .def_49 .def_221)))
(let ((.def_208 (* (- 1.0) b.time__AT1)))
(let ((.def_211 (+ b.delta__AT0 .def_208)))
(let ((.def_212 (+ b.time__AT0 .def_211)))
(let ((.def_213 (= .def_212 0.0 )))
(let ((.def_214 (or .def_130 .def_213)))
(let ((.def_215 (or b.EVENT.1__AT0 .def_214)))
(let ((.def_206 (or .def_129 .def_205)))
(let ((.def_207 (or b.EVENT.1__AT0 .def_206)))
(let ((.def_216 (and .def_207 .def_215)))
(let ((.def_223 (and .def_216 .def_222)))
(let ((.def_201 (= .def_130 b.event_is_timed__AT1)))
(let ((.def_199 (= b.event_is_timed__AT0 .def_129)))
(let ((.def_202 (and .def_199 .def_201)))
(let ((.def_188 (and .def_180 .def_187)))
(let ((.def_84 (<= 0.0 b.speed_y__AT0)))
(let ((.def_133 (not .def_84)))
(let ((.def_132 (= b.y__AT0 0.0 )))
(let ((.def_134 (and .def_132 .def_133)))
(let ((.def_189 (or .def_134 .def_188)))
(let ((.def_155 (or b.counter.0__AT0 .def_154)))
(let ((.def_153 (or .def_32 b.counter.0__AT1)))
(let ((.def_156 (and .def_153 .def_155)))
(let ((.def_157 (and .def_142 .def_156)))
(let ((.def_158 (or b.counter.1__AT0 .def_157)))
(let ((.def_152 (or .def_30 b.counter.1__AT1)))
(let ((.def_159 (and .def_152 .def_158)))
(let ((.def_172 (and .def_149 .def_159)))
(let ((.def_173 (or b.counter.2__AT0 .def_172)))
(let ((.def_167 (and .def_32 .def_142)))
(let ((.def_168 (or b.counter.1__AT0 .def_167)))
(let ((.def_169 (and .def_152 .def_168)))
(let ((.def_170 (and b.counter.2__AT1 .def_169)))
(let ((.def_171 (or .def_35 .def_170)))
(let ((.def_174 (and .def_171 .def_173)))
(let ((.def_175 (and b.counter.3__AT1 .def_174)))
(let ((.def_176 (or b.counter.3__AT0 .def_175)))
(let ((.def_160 (and b.counter.2__AT1 .def_159)))
(let ((.def_161 (or b.counter.2__AT0 .def_160)))
(let ((.def_146 (or b.counter.1__AT0 b.counter.1__AT1)))
(let ((.def_144 (and .def_142 b.counter.0__AT1)))
(let ((.def_145 (or .def_30 .def_144)))
(let ((.def_147 (and .def_145 .def_146)))
(let ((.def_150 (and .def_147 .def_149)))
(let ((.def_151 (or .def_35 .def_150)))
(let ((.def_162 (and .def_151 .def_161)))
(let ((.def_165 (and .def_162 .def_164)))
(let ((.def_166 (or .def_38 .def_165)))
(let ((.def_177 (and .def_166 .def_176)))
(let ((.def_138 (* (- 1.0) b.speed_y__AT0)))
(let ((.def_139 (* .def_137 .def_138)))
(let ((.def_140 (= b.speed_y__AT1 .def_139)))
(let ((.def_178 (and .def_140 .def_177)))
(let ((.def_135 (not .def_134)))
(let ((.def_179 (or .def_135 .def_178)))
(let ((.def_190 (and .def_179 .def_189)))
(let ((.def_192 (and .def_190 .def_191)))
(let ((.def_193 (and .def_111 .def_192)))
(let ((.def_195 (and .def_193 .def_194)))
(let ((.def_196 (or .def_129 .def_195)))
(let ((.def_197 (or b.EVENT.1__AT0 .def_196)))
(let ((.def_121 (* (- 1.0) b.y__AT1)))
(let ((.def_79 (* b.speed_y__AT0 b.delta__AT0)))
(let ((.def_124 (+ .def_79 .def_121)))
(let ((.def_74 (* b.delta__AT0 b.delta__AT0)))
(let ((.def_78 (* .def_74 .def_77)))
(let ((.def_125 (+ .def_78 .def_124)))
(let ((.def_126 (+ b.y__AT0 .def_125)))
(let ((.def_127 (= .def_126 0.0 )))
(let ((.def_113 (* b.delta__AT0 .def_76)))
(let ((.def_116 (+ .def_113 .def_115)))
(let ((.def_117 (+ b.speed_y__AT0 .def_116)))
(let ((.def_118 (= .def_117 0.0 )))
(let ((.def_103 (* (- 1.0) b.x__AT1)))
(let ((.def_107 (+ .def_103 b.x__AT0)))
(let ((.def_101 (* b.delta__AT0 b.speed_x__AT0)))
(let ((.def_108 (+ .def_101 .def_107)))
(let ((.def_109 (= .def_108 0.0 )))
(let ((.def_112 (and .def_109 .def_111)))
(let ((.def_119 (and .def_112 .def_118)))
(let ((.def_128 (and .def_119 .def_127)))
(let ((.def_131 (or .def_128 .def_130)))
(let ((.def_198 (and .def_131 .def_197)))
(let ((.def_203 (and .def_198 .def_202)))
(let ((.def_224 (and .def_203 .def_223)))
(let ((.def_233 (and .def_224 .def_232)))
(let ((.def_236 (and .def_233 .def_235)))
(let ((.def_240 (and .def_236 .def_239)))
(let ((.def_241 (and .def_49 .def_240)))
(let ((.def_258 (and .def_241 .def_257)))
(let ((.def_262 (and .def_258 .def_261)))
(let ((.def_92 (* b.delta__AT0 .def_91)))
(let ((.def_93 (<= b.speed_y__AT0 .def_92)))
(let ((.def_90 (<= b.speed_y__AT0 0.0 )))
(let ((.def_94 (and .def_90 .def_93)))
(let ((.def_86 (* b.delta__AT0 .def_85)))
(let ((.def_87 (+ b.speed_y__AT0 .def_86)))
(let ((.def_88 (<= 0.0 .def_87)))
(let ((.def_89 (and .def_84 .def_88)))
(let ((.def_95 (or .def_89 .def_94)))
(let ((.def_80 (+ .def_78 .def_79)))
(let ((.def_81 (+ b.y__AT0 .def_80)))
(let ((.def_82 (<= 0.0 .def_81)))
(let ((.def_68 (<= 0.0 b.y__AT0)))
(let ((.def_83 (and .def_68 .def_82)))
(let ((.def_96 (and .def_83 .def_95)))
(let ((.def_97 (and .def_58 .def_96)))
(let ((.def_98 (and .def_66 .def_97)))
(let ((.def_69 (and .def_67 .def_68)))
(let ((.def_52 (or .def_49 .def_51)))
(let ((.def_42 (or .def_30 .def_32)))
(let ((.def_46 (or b.counter.3__AT0 .def_42)))
(let ((.def_43 (or b.counter.2__AT0 .def_42)))
(let ((.def_41 (or .def_32 .def_35)))
(let ((.def_44 (and .def_41 .def_43)))
(let ((.def_45 (or .def_38 .def_44)))
(let ((.def_47 (and .def_45 .def_46)))
(let ((.def_53 (and .def_47 .def_52)))
(let ((.def_70 (and .def_53 .def_69)))
(let ((.def_39 (and .def_36 .def_38)))
(let ((.def_27 (= b.speed_y__AT0 0.0 )))
(let ((.def_24 (= b.y__AT0 10.0 )))
(let ((.def_19 (= b.time__AT0 0.0 )))
(let ((.def_21 (and .def_19 b.event_is_timed__AT0)))
(let ((.def_25 (and .def_21 .def_24)))
(let ((.def_28 (and .def_25 .def_27)))
(let ((.def_40 (and .def_28 .def_39)))
(let ((.def_71 (and .def_40 .def_70)))
(let ((.def_7 (and .def_4 .def_6)))
(let ((.def_14 (or .def_7 b.counter.3__AT3)))
(let ((.def_10 (and .def_7 .def_9)))
(let ((.def_13 (or .def_10 .def_12)))
(let ((.def_15 (and .def_13 .def_14)))
(let ((.def_16 (not .def_15)))
(let ((.def_72 (and .def_16 .def_71)))
(let ((.def_99 (and .def_72 .def_98)))
(let ((.def_263 (and .def_99 .def_262)))
(let ((.def_285 (and .def_263 .def_284)))
(let ((.def_445 (and .def_285 .def_444)))
(let ((.def_467 (and .def_445 .def_466)))
(let ((.def_619 (and .def_467 .def_618)))
(let ((.def_641 (and .def_619 .def_640)))
.def_641))))))))))))))))))))))))))))))))))))))))))))))))))))))))))))))))))))))))))))))))))))))))))))))))))))))))))))))))))))))))))))))))))))))))))))))))))))))))))))))))))))))))))))))))))))))))))))))))))))))))))))))))))))))))))))))))))))))))))))))))))))))))))))))))))))))))))))))))))))))))))))))))))))))))))))))))))))))))))))))))))))))))))))))))))))))))))))))))))))))))))))))))))))))))))))))))))))))))))))))))))))))))))))))))))))))))))))))))))))))))))))))))))))))))))))))))))))))))))))))))))))))))))))))))))))))))))))))))))))))))))))))))))))))))))))))))))))))))))))))))))
(check-sat)
(exit)
